LOCATION,Testville,CO,USA,ThreeMojo fixture,000000,40.00,-105.00,-7.0,1600.0
DESIGN CONDITIONS,0
TYPICAL/EXTREME PERIODS,0
GROUND TEMPERATURES,0
HOLIDAYS/DAYLIGHT SAVINGS,No,0,0,0
COMMENTS 1,A synthetic day written for the ThreeMojo tests. It is not a measurement.
COMMENTS 2,Values follow a smooth winter day with a clear sky at noon.
DATA PERIODS,1,1,Data,Sunday, 1/15,1/15
2023,1,15,1,60,A7A7A7A7*0?9?9?9?9?9?9?9A7A7A7A7A7A7*0*0*0*0*0*0,-1.4,-8.0,61,83500,0,1415,230,0,0,0,0,0,0,0,205,2.4,0,0,30.0,77777,9,999999999,5,0.07,0,88,0.2,0.0,1.0
2023,1,15,2,60,A7A7A7A7*0?9?9?9?9?9?9?9A7A7A7A7A7A7*0*0*0*0*0*0,-1.8,-8.0,63,83500,0,1415,230,0,0,0,0,0,0,0,210,2.7,0,0,30.0,77777,9,999999999,5,0.07,0,88,0.2,0.0,1.0
2023,1,15,3,60,A7A7A7A7*0?9?9?9?9?9?9?9A7A7A7A7A7A7*0*0*0*0*0*0,-2.0,-8.0,64,83500,0,1415,230,0,0,0,0,0,0,0,215,3.0,0,0,30.0,77777,9,999999999,5,0.07,0,88,0.2,0.0,1.0
2023,1,15,4,60,A7A7A7A7*0?9?9?9?9?9?9?9A7A7A7A7A7A7*0*0*0*0*0*0,-2.0,-8.0,64,83500,0,1415,230,0,0,0,0,0,0,0,220,3.3,0,0,30.0,77777,9,999999999,5,0.07,0,88,0.2,0.0,1.0
2023,1,15,5,60,A7A7A7A7*0?9?9?9?9?9?9?9A7A7A7A7A7A7*0*0*0*0*0*0,-1.8,-8.0,63,83500,0,1415,230,0,0,0,0,0,0,0,225,3.4,0,0,30.0,77777,9,999999999,5,0.07,0,88,0.2,0.0,1.0
2023,1,15,6,60,A7A7A7A7*0?9?9?9?9?9?9?9A7A7A7A7A7A7*0*0*0*0*0*0,-1.4,-8.0,61,83500,0,1415,230,0,0,0,0,0,0,0,230,3.5,0,0,30.0,77777,9,999999999,5,0.07,0,88,0.2,0.0,1.0
2023,1,15,7,60,A7A7A7A7*0?9?9?9?9?9?9?9A7A7A7A7A7A7*0*0*0*0*0*0,-0.8,-8.0,58,83500,0,1415,230,0,0,0,0,0,0,0,235,3.5,0,0,30.0,77777,9,999999999,5,0.07,0,88,0.2,0.0,1.0
2023,1,15,8,60,A7A7A7A7*0?9?9?9?9?9?9?9A7A7A7A7A7A7*0*0*0*0*0*0,-0.1,-8.0,55,83500,0,1415,230,0,0,0,0,0,0,0,240,3.4,0,0,30.0,77777,9,999999999,5,0.07,0,88,0.2,0.0,1.0
2023,1,15,9,60,A7A7A7A7*0?9?9?9?9?9?9?9A7A7A7A7A7A7*0*0*0*0*0*0,0.6,-8.0,53,83500,0,1415,230,120,433,19,0,0,0,0,245,3.2,0,0,30.0,77777,9,999999999,5,0.07,0,88,0.2,0.0,1.0
2023,1,15,10,60,A7A7A7A7*0?9?9?9?9?9?9?9A7A7A7A7A7A7*0*0*0*0*0*0,1.4,-8.0,50,83500,0,1415,230,276,634,37,0,0,0,0,250,2.9,0,0,30.0,77777,9,999999999,5,0.07,0,88,0.2,0.0,1.0
2023,1,15,11,60,A7A7A7A7*0?9?9?9?9?9?9?9A7A7A7A7A7A7*0*0*0*0*0*0,2.1,-8.0,47,83500,0,1415,230,413,764,50,0,0,0,0,255,2.6,0,0,30.0,77777,9,999999999,5,0.07,0,88,0.2,0.0,1.0
2023,1,15,12,60,A7A7A7A7*0?9?9?9?9?9?9?9A7A7A7A7A7A7*0*0*0*0*0*0,2.8,-8.0,45,83500,0,1415,230,499,834,58,0,0,0,0,260,2.2,0,0,30.0,77777,9,999999999,5,0.07,0,88,0.2,0.0,1.0
2023,1,15,13,60,A7A7A7A7*0?9?9?9?9?9?9?9A7A7A7A7A7A7*0*0*0*0*0*0,3.4,-8.0,43,83500,0,1415,230,518,848,60,0,0,0,0,265,1.8,0,0,30.0,77777,9,999999999,5,0.07,0,88,0.2,0.0,1.0
2023,1,15,14,60,A7A7A7A7*0?9?9?9?9?9?9?9A7A7A7A7A7A7*0*0*0*0*0*0,3.8,-8.0,42,83500,0,1415,230,464,806,55,0,0,0,0,270,1.5,0,0,30.0,77777,9,999999999,5,0.07,0,88,0.2,0.0,1.0
2023,1,15,15,60,A7A7A7A7*0?9?9?9?9?9?9?9A7A7A7A7A7A7*0*0*0*0*0*0,4.0,-8.0,41,83500,0,1415,230,349,707,44,0,0,0,0,275,1.1,0,0,30.0,77777,9,999999999,5,0.07,0,88,0.2,0.0,1.0
2023,1,15,16,60,A7A7A7A7*0?9?9?9?9?9?9?9A7A7A7A7A7A7*0*0*0*0*0*0,4.0,-8.0,41,83500,0,1415,230,198,544,29,0,0,0,0,280,0.9,0,0,30.0,77777,9,999999999,5,0.07,0,88,0.2,0.0,1.0
2023,1,15,17,60,A7A7A7A7*0?9?9?9?9?9?9?9A7A7A7A7A7A7*0*0*0*0*0*0,3.8,-8.0,42,83500,0,1415,230,50,288,10,0,0,0,0,285,0.7,0,0,30.0,77777,9,999999999,5,0.07,0,88,0.2,0.0,1.0
2023,1,15,18,60,A7A7A7A7*0?9?9?9?9?9?9?9A7A7A7A7A7A7*0*0*0*0*0*0,3.4,-8.0,43,83500,0,1415,230,0,0,0,0,0,0,0,290,0.5,0,0,30.0,77777,9,999999999,5,0.07,0,88,0.2,0.0,1.0
2023,1,15,19,60,A7A7A7A7*0?9?9?9?9?9?9?9A7A7A7A7A7A7*0*0*0*0*0*0,2.8,-8.0,45,83500,0,1415,230,0,0,0,0,0,0,0,295,0.5,0,0,30.0,77777,9,999999999,5,0.07,0,88,0.2,0.0,1.0
2023,1,15,20,60,A7A7A7A7*0?9?9?9?9?9?9?9A7A7A7A7A7A7*0*0*0*0*0*0,2.1,-8.0,47,83500,0,1415,230,0,0,0,0,0,0,0,300,0.6,0,0,30.0,77777,9,999999999,5,0.07,0,88,0.2,0.0,1.0
2023,1,15,21,60,A7A7A7A7*0?9?9?9?9?9?9?9A7A7A7A7A7A7*0*0*0*0*0*0,1.4,-8.0,50,83500,0,1415,230,0,0,0,0,0,0,0,305,0.7,0,0,30.0,77777,9,999999999,5,0.07,0,88,0.2,0.0,1.0
2023,1,15,22,60,A7A7A7A7*0?9?9?9?9?9?9?9A7A7A7A7A7A7*0*0*0*0*0*0,0.6,-8.0,53,83500,0,1415,230,0,0,0,0,0,0,0,310,0.9,0,0,30.0,77777,9,999999999,5,0.07,0,88,0.2,0.0,1.0
2023,1,15,23,60,A7A7A7A7*0?9?9?9?9?9?9?9A7A7A7A7A7A7*0*0*0*0*0*0,-0.1,-8.0,55,83500,0,1415,230,0,0,0,0,0,0,0,315,1.2,0,0,30.0,77777,9,999999999,5,0.07,0,88,0.2,0.0,1.0
2023,1,15,24,60,A7A7A7A7*0?9?9?9?9?9?9?9A7A7A7A7A7A7*0*0*0*0*0*0,-0.8,-8.0,58,83500,0,1415,230,0,0,0,0,0,0,0,320,1.6,0,0,30.0,77777,9,999999999,5,0.07,0,88,0.2,0.0,1.0
